%%% static parameters %%%
timespan = 1;
Fact = [1];
Distr1 = [15];
Distr2 = [20];
Clients_N = [100];
Demand_W = [15];
Lt0 = [4];
Lt1 = [4];
SS_ = [0.85];
DS_D = [20];
K = [200];
MA = [500];
%%% dynamic parameters %%%
lost_ratio_sales_ret_th = 0.007816409332045235;
lost_ratio_sales_ret_w = 2;
lost_ratio_sales_dis_th = 0.001235370030755285;
lost_ratio_sales_dis_w = 94;
lost_ratio_sales_fac_th = 0.004243276521001405;
lost_ratio_sales_fac_w = 18;
stock_customer_MA_mean_relative_th = 0.7339803437011141;
stock_customer_MA_mean_relative_w = 11;
stock_distributor_MA_mean_relative_th = 0.6858556973107909;
stock_distributor_MA_mean_relative_w = 91;
stock_retailer_MA_mean_relative_th = 0.5506322499175222;
stock_retailer_MA_mean_relative_w = 37;
stock_factory_MA_mean_relative_th = 0.5153722837146067;
stock_factory_MA_mean_relative_w = 32;
